(benchmark gametime
:status unknown
:logic QF_AUFBV
:extrafuns ((gtINDEX109  BitVec[32]))
:extrafuns ((gtFIELD__bitsForTID0__gtAGG____anonstruct_D_Work_4  Array[32:32]))
:extrafuns ((gtINDEX110  BitVec[32]))
:extrafuns ((gtAGG__rtDWork  BitVec[32]))
:extrafuns ((gtINDEX107  BitVec[32]))
:extrafuns ((gtINDEX108  BitVec[32]))
:extrafuns ((gtINDEX105  BitVec[32]))
:extrafuns ((gtINDEX106  BitVec[32]))
:extrafuns ((gtINDEX103  BitVec[32]))
:extrafuns ((gtINDEX104  BitVec[32]))
:extrafuns ((gtINDEX102  BitVec[32]))
:extrafuns ((gtINDEX101  BitVec[32]))
:extrafuns ((gtINDEX100  BitVec[32]))
:extrafuns ((gtINDEX99  BitVec[32]))
:extrafuns ((gtINDEX97  BitVec[32]))
:extrafuns ((gtINDEX98  BitVec[32]))
:extrafuns ((gtINDEX95  BitVec[32]))
:extrafuns ((gtINDEX96  BitVec[32]))
:extrafuns ((gtINDEX94  BitVec[32]))
:extrafuns ((gtINDEX92  BitVec[32]))
:extrafuns ((gtINDEX93  BitVec[32]))
:extrafuns ((gtINDEX90  BitVec[32]))
:extrafuns ((gtINDEX91  BitVec[32]))
:extrafuns ((gtINDEX89  BitVec[32]))
:extrafuns ((gtINDEX88  BitVec[32]))
:extrafuns ((gtINDEX86  BitVec[32]))
:extrafuns ((gtINDEX87  BitVec[32]))
:extrafuns ((gtINDEX84  BitVec[32]))
:extrafuns ((gtINDEX85  BitVec[32]))
:extrafuns ((gtINDEX82  BitVec[32]))
:extrafuns ((gtINDEX83  BitVec[32]))
:extrafuns ((gtINDEX80  BitVec[32]))
:extrafuns ((gtINDEX81  BitVec[32]))
:extrafuns ((gtINDEX78  BitVec[32]))
:extrafuns ((gtINDEX79  BitVec[32]))
:extrafuns ((gtINDEX76  BitVec[32]))
:extrafuns ((gtINDEX77  BitVec[32]))
:extrafuns ((gtINDEX74  BitVec[32]))
:extrafuns ((gtINDEX75  BitVec[32]))
:extrafuns ((gtINDEX72  BitVec[32]))
:extrafuns ((gtINDEX73  BitVec[32]))
:extrafuns ((gtINDEX71  BitVec[32]))
:extrafuns ((gtINDEX69  BitVec[32]))
:extrafuns ((gtINDEX70  BitVec[32]))
:extrafuns ((gtINDEX68  BitVec[32]))
:extrafuns ((gtINDEX66  BitVec[32]))
:extrafuns ((gtINDEX67  BitVec[32]))
:extrafuns ((gtINDEX64  BitVec[32]))
:extrafuns ((gtINDEX65  BitVec[32]))
:extrafuns ((gtINDEX63  BitVec[32]))
:extrafuns ((gtINDEX61  BitVec[32]))
:extrafuns ((gtINDEX62  BitVec[32]))
:extrafuns ((gtINDEX60  BitVec[32]))
:extrafuns ((gtINDEX59  BitVec[32]))
:extrafuns ((gtINDEX57  BitVec[32]))
:extrafuns ((gtINDEX58  BitVec[32]))
:extrafuns ((gtINDEX55  BitVec[32]))
:extrafuns ((gtINDEX56  BitVec[32]))
:extrafuns ((gtINDEX53  BitVec[32]))
:extrafuns ((gtINDEX54  BitVec[32]))
:extrafuns ((gtINDEX51  BitVec[32]))
:extrafuns ((gtINDEX52  BitVec[32]))
:extrafuns ((gtINDEX49  BitVec[32]))
:extrafuns ((gtINDEX50  BitVec[32]))
:extrafuns ((gtINDEX47  BitVec[32]))
:extrafuns ((gtINDEX48  BitVec[32]))
:extrafuns ((gtINDEX45  BitVec[32]))
:extrafuns ((gtINDEX46  BitVec[32]))
:extrafuns ((gtINDEX43  BitVec[32]))
:extrafuns ((gtINDEX44  BitVec[32]))
:extrafuns ((gtINDEX42  BitVec[32]))
:extrafuns ((gtINDEX41  BitVec[32]))
:extrafuns ((gtINDEX39  BitVec[32]))
:extrafuns ((gtINDEX40  BitVec[32]))
:extrafuns ((gtINDEX37  BitVec[32]))
:extrafuns ((gtINDEX38  BitVec[32]))
:extrafuns ((gtINDEX35  BitVec[32]))
:extrafuns ((gtINDEX36  BitVec[32]))
:extrafuns ((gtINDEX33  BitVec[32]))
:extrafuns ((gtINDEX34  BitVec[32]))
:extrafuns ((gtINDEX31  BitVec[32]))
:extrafuns ((gtINDEX32  BitVec[32]))
:extrafuns ((gtINDEX29  BitVec[32]))
:extrafuns ((gtINDEX30  BitVec[32]))
:extrafuns ((gtINDEX27  BitVec[32]))
:extrafuns ((gtINDEX28  BitVec[32]))
:extrafuns ((gtINDEX25  BitVec[32]))
:extrafuns ((gtINDEX26  BitVec[32]))
:extrafuns ((gtINDEX23  BitVec[32]))
:extrafuns ((gtINDEX24  BitVec[32]))
:extrafuns ((gtINDEX21  BitVec[32]))
:extrafuns ((gtINDEX22  BitVec[32]))
:extrafuns ((gtINDEX19  BitVec[32]))
:extrafuns ((gtINDEX20  BitVec[32]))
:extrafuns ((gtINDEX17  BitVec[32]))
:extrafuns ((gtINDEX18  BitVec[32]))
:extrafuns ((gtINDEX16  BitVec[32]))
:extrafuns ((gtINDEX14  BitVec[32]))
:extrafuns ((gtINDEX15  BitVec[32]))
:extrafuns ((gtINDEX12  BitVec[32]))
:extrafuns ((gtINDEX13  BitVec[32]))
:extrafuns ((gtINDEX10  BitVec[32]))
:extrafuns ((gtINDEX11  BitVec[32]))
:extrafuns ((gtINDEX8  BitVec[32]))
:extrafuns ((gtINDEX9  BitVec[32]))
:extrafuns ((gtINDEX6  BitVec[32]))
:extrafuns ((gtINDEX7  BitVec[32]))
:extrafuns ((gtINDEX4  BitVec[32]))
:extrafuns ((gtINDEX5  BitVec[32]))
:extrafuns ((gtINDEX2  BitVec[32]))
:extrafuns ((gtINDEX3  BitVec[32]))
:extrafuns ((gtINDEX0  BitVec[32]))
:extrafuns ((gtINDEX1  BitVec[32]))
:extrafuns ((gtFIELD__is_Eng__gtAGG____anonstruct_bitsForTID0_5_1_  Array[32:1]))
:extrafuns ((gtFIELD__is_Eng__gtAGG____anonstruct_bitsForTID0_5_2_  Array[32:1]))
:extrafuns ((sf_previousEvent_1_  BitVec[32]))
:extrafuns ((sfEvent__2_  BitVec[32]))
:extrafuns ((gtFIELD__is_Eng__gtAGG____anonstruct_bitsForTID0_5  Array[32:1]))
:extrafuns ((gtFIELD__sent__gtAGG____anonstruct_D_Work_4_1_  Array[32:32]))
:extrafuns ((gtFIELD__sent__gtAGG____anonstruct_D_Work_4_2_  Array[32:32]))
:extrafuns ((gtFIELD__is_active_Eng__gtAGG____anonstruct_bitsForTID0_5  Array[32:1]))
:extrafuns ((gtFIELD__temporalCounter_i5__gtAGG____anonstruct_D_Work_4  Array[32:32]))
:extrafuns ((gtFIELD__temporalCounter_i5__gtAGG____anonstruct_D_Work_4_1_  Array[32:32]))
:extrafuns ((gtFIELD__is_PURI__gtAGG____anonstruct_bitsForTID0_5  Array[32:2]))
:extrafuns ((gtFIELD__is_PURI__gtAGG____anonstruct_bitsForTID0_5_1_  Array[32:2]))
:extrafuns ((gtFIELD__URIex__gtAGG____anonstruct_bitsForTID0_5  Array[32:1]))
:extrafuns ((gtFIELD__URIex__gtAGG____anonstruct_bitsForTID0_5_1_  Array[32:1]))
:extrafuns ((gtFIELD__sh_rst__gtAGG____anonstruct_D_Work_4  Array[32:32]))
:extrafuns ((gtFIELD__sh_rst__gtAGG____anonstruct_D_Work_4_1_  Array[32:32]))
:extrafuns ((gtFIELD__n_t_a__gtAGG____anonstruct_D_Work_4  Array[32:32]))
:extrafuns ((gtFIELD__n_t_a__gtAGG____anonstruct_D_Work_4_1_  Array[32:32]))
:extrafuns ((sfEvent__1_  BitVec[32]))
:extrafuns ((gtFIELD__is_active_PURI__gtAGG____anonstruct_bitsForTID0_5  Array[32:1]))
:extrafuns ((gtFIELD__is_PVRP__gtAGG____anonstruct_bitsForTID0_5_1_  Array[32:2]))
:extrafuns ((gtFIELD__is_PVRP__gtAGG____anonstruct_bitsForTID0_5_2_  Array[32:2]))
:extrafuns ((gtFIELD__is_active_PVRP__gtAGG____anonstruct_bitsForTID0_5  Array[32:1]))
:extrafuns ((gtFIELD__temporalCounter_i3__gtAGG____anonstruct_D_Work_4  Array[32:32]))
:extrafuns ((gtFIELD__temporalCounter_i3__gtAGG____anonstruct_D_Work_4_1_  Array[32:32]))
:extrafuns ((gtFIELD__is_PPVARP__gtAGG____anonstruct_bitsForTID0_5  Array[32:2]))
:extrafuns ((gtFIELD__is_PPVARP__gtAGG____anonstruct_bitsForTID0_5_1_  Array[32:2]))
:extrafuns ((gtFIELD__n_t_b__gtAGG____anonstruct_D_Work_4  Array[32:32]))
:extrafuns ((gtFIELD__n_t_b__gtAGG____anonstruct_D_Work_4_1_  Array[32:32]))
:extrafuns ((gtFIELD__is_active_PPVARP__gtAGG____anonstruct_bitsForTID0_5  Array[32:1]))
:extrafuns ((gtFIELD__temporalCounter_i2__gtAGG____anonstruct_D_Work_4  Array[32:32]))
:extrafuns ((gtFIELD__temporalCounter_i2__gtAGG____anonstruct_D_Work_4_1_  Array[32:32]))
:extrafuns ((gtFIELD__is_PLRI__gtAGG____anonstruct_bitsForTID0_5  Array[32:2]))
:extrafuns ((gtFIELD__is_PLRI__gtAGG____anonstruct_bitsForTID0_5_1_  Array[32:2]))
:extrafuns ((gtFIELD__n_t_n__gtAGG____anonstruct_D_Work_4  Array[32:32]))
:extrafuns ((gtFIELD__n_t_n__gtAGG____anonstruct_D_Work_4_1_  Array[32:32]))
:extrafuns ((gtFIELD__is_active_PLRI__gtAGG____anonstruct_bitsForTID0_5  Array[32:1]))
:extrafuns ((gtFIELD__is_PAVI__gtAGG____anonstruct_bitsForTID0_5_1_  Array[32:3]))
:extrafuns ((gtFIELD__is_PAVI__gtAGG____anonstruct_bitsForTID0_5_2_  Array[32:3]))
:extrafuns ((gtFIELD__is_active_PAVI__gtAGG____anonstruct_bitsForTID0_5  Array[32:1]))
:extrafuns ((sfEvent_  BitVec[32]))
:extrafuns ((gtFIELD__sent__gtAGG____anonstruct_D_Work_4  Array[32:32]))
:extrafuns ((gtFIELD__is_PVRP__gtAGG____anonstruct_bitsForTID0_5  Array[32:2]))
:extrafuns ((gtFIELD__is_PAVI__gtAGG____anonstruct_bitsForTID0_5  Array[32:3]))
:extrapreds ((constraint192 ))
:extrapreds ((constraint191 ))
:extrapreds ((constraint190 ))
:extrapreds ((constraint189 ))
:extrapreds ((constraint188 ))
:extrapreds ((constraint187 ))
:extrapreds ((constraint186 ))
:extrapreds ((constraint185 ))
:extrapreds ((constraint184 ))
:extrapreds ((constraint183 ))
:extrapreds ((constraint182 ))
:extrapreds ((constraint181 ))
:extrapreds ((constraint180 ))
:extrapreds ((constraint179 ))
:extrapreds ((constraint178 ))
:extrapreds ((constraint177 ))
:extrapreds ((constraint176 ))
:extrapreds ((constraint175 ))
:extrapreds ((constraint174 ))
:extrapreds ((constraint173 ))
:extrapreds ((constraint172 ))
:extrapreds ((constraint171 ))
:extrapreds ((constraint170 ))
:extrapreds ((constraint169 ))
:extrapreds ((constraint168 ))
:extrapreds ((constraint167 ))
:extrapreds ((constraint166 ))
:extrapreds ((constraint165 ))
:extrapreds ((constraint164 ))
:extrapreds ((constraint163 ))
:extrapreds ((constraint162 ))
:extrapreds ((constraint161 ))
:extrapreds ((constraint160 ))
:extrapreds ((constraint159 ))
:extrapreds ((constraint158 ))
:extrapreds ((constraint157 ))
:extrapreds ((constraint156 ))
:extrapreds ((constraint155 ))
:extrapreds ((constraint154 ))
:extrapreds ((constraint153 ))
:extrapreds ((constraint152 ))
:extrapreds ((constraint151 ))
:extrapreds ((constraint150 ))
:extrapreds ((constraint149 ))
:extrapreds ((constraint148 ))
:extrapreds ((constraint147 ))
:extrapreds ((constraint146 ))
:extrapreds ((constraint145 ))
:extrapreds ((constraint144 ))
:extrapreds ((constraint143 ))
:extrapreds ((constraint142 ))
:extrapreds ((constraint141 ))
:extrapreds ((constraint140 ))
:extrapreds ((constraint139 ))
:extrapreds ((constraint138 ))
:extrapreds ((constraint137 ))
:extrapreds ((constraint136 ))
:extrapreds ((constraint135 ))
:extrapreds ((constraint134 ))
:extrapreds ((constraint133 ))
:extrapreds ((constraint132 ))
:extrapreds ((constraint131 ))
:extrapreds ((constraint130 ))
:extrapreds ((constraint129 ))
:extrapreds ((constraint128 ))
:extrapreds ((constraint127 ))
:extrapreds ((constraint126 ))
:extrapreds ((constraint125 ))
:extrapreds ((constraint124 ))
:extrapreds ((constraint123 ))
:extrapreds ((constraint122 ))
:extrapreds ((constraint121 ))
:extrapreds ((constraint120 ))
:extrapreds ((constraint119 ))
:extrapreds ((constraint118 ))
:extrapreds ((constraint117 ))
:extrapreds ((constraint116 ))
:extrapreds ((constraint115 ))
:extrapreds ((constraint114 ))
:extrapreds ((constraint113 ))
:extrapreds ((constraint112 ))
:extrapreds ((constraint111 ))
:extrapreds ((constraint110 ))
:extrapreds ((constraint109 ))
:extrapreds ((constraint108 ))
:extrapreds ((constraint107 ))
:extrapreds ((constraint106 ))
:extrapreds ((constraint105 ))
:extrapreds ((constraint104 ))
:extrapreds ((constraint103 ))
:extrapreds ((constraint102 ))
:extrapreds ((constraint101 ))
:extrapreds ((constraint100 ))
:extrapreds ((constraint99 ))
:extrapreds ((constraint98 ))
:extrapreds ((constraint97 ))
:extrapreds ((constraint96 ))
:extrapreds ((constraint95 ))
:extrapreds ((constraint94 ))
:extrapreds ((constraint93 ))
:extrapreds ((constraint92 ))
:extrapreds ((constraint91 ))
:extrapreds ((constraint90 ))
:extrapreds ((constraint89 ))
:extrapreds ((constraint88 ))
:extrapreds ((constraint87 ))
:extrapreds ((constraint86 ))
:extrapreds ((constraint85 ))
:extrapreds ((constraint84 ))
:extrapreds ((constraint83 ))
:extrapreds ((constraint82 ))
:extrapreds ((constraint81 ))
:extrapreds ((constraint80 ))
:extrapreds ((constraint79 ))
:extrapreds ((constraint78 ))
:extrapreds ((constraint77 ))
:extrapreds ((constraint76 ))
:extrapreds ((constraint75 ))
:extrapreds ((constraint74 ))
:extrapreds ((constraint73 ))
:extrapreds ((constraint72 ))
:extrapreds ((constraint71 ))
:extrapreds ((constraint70 ))
:extrapreds ((constraint69 ))
:extrapreds ((constraint68 ))
:extrapreds ((constraint67 ))
:extrapreds ((constraint66 ))
:extrapreds ((constraint65 ))
:extrapreds ((constraint64 ))
:extrapreds ((constraint63 ))
:extrapreds ((constraint62 ))
:extrapreds ((constraint61 ))
:extrapreds ((constraint60 ))
:extrapreds ((constraint59 ))
:extrapreds ((constraint58 ))
:extrapreds ((constraint57 ))
:extrapreds ((constraint56 ))
:extrapreds ((constraint55 ))
:extrapreds ((constraint54 ))
:extrapreds ((constraint53 ))
:extrapreds ((constraint52 ))
:extrapreds ((constraint51 ))
:extrapreds ((constraint50 ))
:extrapreds ((constraint49 ))
:extrapreds ((constraint48 ))
:extrapreds ((constraint47 ))
:extrapreds ((constraint46 ))
:extrapreds ((constraint45 ))
:extrapreds ((constraint44 ))
:extrapreds ((constraint43 ))
:extrapreds ((constraint42 ))
:extrapreds ((constraint41 ))
:extrapreds ((constraint40 ))
:extrapreds ((constraint39 ))
:extrapreds ((constraint38 ))
:extrapreds ((constraint37 ))
:extrapreds ((constraint36 ))
:extrapreds ((constraint35 ))
:extrapreds ((constraint34 ))
:extrapreds ((constraint33 ))
:extrapreds ((constraint32 ))
:extrapreds ((constraint31 ))
:extrapreds ((constraint30 ))
:extrapreds ((constraint29 ))
:extrapreds ((constraint28 ))
:extrapreds ((constraint27 ))
:extrapreds ((constraint26 ))
:extrapreds ((constraint25 ))
:extrapreds ((constraint24 ))
:extrapreds ((constraint23 ))
:extrapreds ((constraint22 ))
:extrapreds ((constraint21 ))
:extrapreds ((constraint20 ))
:extrapreds ((constraint19 ))
:extrapreds ((constraint18 ))
:extrapreds ((constraint17 ))
:extrapreds ((constraint16 ))
:extrapreds ((constraint15 ))
:extrapreds ((constraint14 ))
:extrapreds ((constraint13 ))
:extrapreds ((constraint12 ))
:extrapreds ((constraint11 ))
:extrapreds ((constraint10 ))
:extrapreds ((constraint9 ))
:extrapreds ((constraint8 ))
:extrapreds ((constraint7 ))
:extrapreds ((constraint6 ))
:extrapreds ((constraint5 ))
:extrapreds ((constraint4 ))
:extrapreds ((constraint3 ))
:extrapreds ((constraint2 ))
:extrapreds ((constraint1 ))
:extrapreds ((constraint0 ))
:formula
(flet ($x954 (and constraint0 constraint1 constraint2 constraint3 constraint4 constraint5 constraint6 constraint7 constraint8 constraint9 constraint10 constraint11 constraint12 constraint13 constraint14 constraint15 constraint16 constraint17 constraint18 constraint19 constraint20 constraint21 constraint22 constraint23 constraint24 constraint25 constraint26 constraint27 constraint28 constraint29 constraint30 constraint31 constraint32 constraint33 constraint34 constraint35 constraint36 constraint37 constraint38 constraint39 constraint40 constraint41 constraint42 constraint43 constraint44 constraint45 constraint46 constraint47 constraint48 constraint49 constraint50 constraint51 constraint52 constraint53 constraint54 constraint55 constraint56 constraint57 constraint58 constraint59 constraint60 constraint61 constraint62 constraint63 constraint64 constraint65 constraint66 constraint67 constraint68 constraint69 constraint70 constraint71 constraint72 constraint73 constraint74 constraint75 constraint76 constraint77 constraint78 constraint79 constraint80 constraint81 constraint82 constraint83 constraint84 constraint85 constraint86 constraint87 constraint88 constraint89 constraint90 constraint91 constraint92 constraint93 constraint94 constraint95 constraint96 constraint97 constraint98 constraint99 constraint100 constraint101 constraint102 constraint103 constraint104 constraint105 constraint106 constraint107 constraint108 constraint109 constraint110 constraint111 constraint112 constraint113 constraint114 constraint115 constraint116 constraint117 constraint118 constraint119 constraint120 constraint121 constraint122 constraint123 constraint124 constraint125 constraint126 constraint127 constraint128 constraint129 constraint130 constraint131 constraint132 constraint133 constraint134 constraint135 constraint136 constraint137 constraint138 constraint139 constraint140 constraint141 constraint142 constraint143 constraint144 constraint145 constraint146 constraint147 constraint148 constraint149 constraint150 constraint151 constraint152 constraint153 constraint154 constraint155 constraint156 constraint157 constraint158 constraint159 constraint160 constraint161 constraint162 constraint163 constraint164 constraint165 constraint166 constraint167 constraint168 constraint169 constraint170 constraint171 constraint172 constraint173 constraint174 constraint175 constraint176 constraint177 constraint178 constraint179 constraint180 constraint181 constraint182 constraint183 constraint184 constraint185 constraint186 constraint187 constraint188 constraint189 constraint190 constraint191 constraint192))
(let (?x565 (select gtFIELD__bitsForTID0__gtAGG____anonstruct_D_Work_4 gtINDEX109))
(let (?x561 (select gtFIELD__bitsForTID0__gtAGG____anonstruct_D_Work_4 gtINDEX107))
(let (?x557 (select gtFIELD__bitsForTID0__gtAGG____anonstruct_D_Work_4 gtINDEX105))
(let (?x553 (select gtFIELD__bitsForTID0__gtAGG____anonstruct_D_Work_4 gtINDEX103))
(flet ($x546 (= gtINDEX98 (select gtFIELD__bitsForTID0__gtAGG____anonstruct_D_Work_4 gtINDEX97)))
(flet ($x542 (= gtINDEX96 (select gtFIELD__bitsForTID0__gtAGG____anonstruct_D_Work_4 gtINDEX95)))
(flet ($x537 (= gtINDEX93 (select gtFIELD__bitsForTID0__gtAGG____anonstruct_D_Work_4 gtINDEX92)))
(flet ($x533 (= gtINDEX91 (select gtFIELD__bitsForTID0__gtAGG____anonstruct_D_Work_4 gtINDEX90)))
(flet ($x527 (= gtINDEX87 (select gtFIELD__bitsForTID0__gtAGG____anonstruct_D_Work_4 gtINDEX86)))
(flet ($x523 (= gtINDEX85 (select gtFIELD__bitsForTID0__gtAGG____anonstruct_D_Work_4 gtINDEX84)))
(flet ($x519 (= gtINDEX83 (select gtFIELD__bitsForTID0__gtAGG____anonstruct_D_Work_4 gtINDEX82)))
(flet ($x515 (= gtINDEX81 (select gtFIELD__bitsForTID0__gtAGG____anonstruct_D_Work_4 gtINDEX80)))
(flet ($x511 (= gtINDEX79 (select gtFIELD__bitsForTID0__gtAGG____anonstruct_D_Work_4 gtINDEX78)))
(flet ($x507 (= gtINDEX77 (select gtFIELD__bitsForTID0__gtAGG____anonstruct_D_Work_4 gtINDEX76)))
(flet ($x503 (= gtINDEX75 (select gtFIELD__bitsForTID0__gtAGG____anonstruct_D_Work_4 gtINDEX74)))
(flet ($x499 (= gtINDEX73 (select gtFIELD__bitsForTID0__gtAGG____anonstruct_D_Work_4 gtINDEX72)))
(flet ($x494 (= gtINDEX70 (select gtFIELD__bitsForTID0__gtAGG____anonstruct_D_Work_4 gtINDEX69)))
(flet ($x489 (= gtINDEX67 (select gtFIELD__bitsForTID0__gtAGG____anonstruct_D_Work_4 gtINDEX66)))
(flet ($x485 (= gtINDEX65 (select gtFIELD__bitsForTID0__gtAGG____anonstruct_D_Work_4 gtINDEX64)))
(flet ($x480 (= gtINDEX62 (select gtFIELD__bitsForTID0__gtAGG____anonstruct_D_Work_4 gtINDEX61)))
(flet ($x474 (= gtINDEX58 (select gtFIELD__bitsForTID0__gtAGG____anonstruct_D_Work_4 gtINDEX57)))
(flet ($x470 (= gtINDEX56 (select gtFIELD__bitsForTID0__gtAGG____anonstruct_D_Work_4 gtINDEX55)))
(flet ($x466 (= gtINDEX54 (select gtFIELD__bitsForTID0__gtAGG____anonstruct_D_Work_4 gtINDEX53)))
(flet ($x462 (= gtINDEX52 (select gtFIELD__bitsForTID0__gtAGG____anonstruct_D_Work_4 gtINDEX51)))
(flet ($x458 (= gtINDEX50 (select gtFIELD__bitsForTID0__gtAGG____anonstruct_D_Work_4 gtINDEX49)))
(flet ($x454 (= gtINDEX48 (select gtFIELD__bitsForTID0__gtAGG____anonstruct_D_Work_4 gtINDEX47)))
(flet ($x450 (= gtINDEX46 (select gtFIELD__bitsForTID0__gtAGG____anonstruct_D_Work_4 gtINDEX45)))
(flet ($x446 (= gtINDEX44 (select gtFIELD__bitsForTID0__gtAGG____anonstruct_D_Work_4 gtINDEX43)))
(flet ($x440 (= gtINDEX40 (select gtFIELD__bitsForTID0__gtAGG____anonstruct_D_Work_4 gtINDEX39)))
(flet ($x436 (= gtINDEX38 (select gtFIELD__bitsForTID0__gtAGG____anonstruct_D_Work_4 gtINDEX37)))
(flet ($x432 (= gtINDEX36 (select gtFIELD__bitsForTID0__gtAGG____anonstruct_D_Work_4 gtINDEX35)))
(flet ($x428 (= gtINDEX34 (select gtFIELD__bitsForTID0__gtAGG____anonstruct_D_Work_4 gtINDEX33)))
(flet ($x424 (= gtINDEX32 (select gtFIELD__bitsForTID0__gtAGG____anonstruct_D_Work_4 gtINDEX31)))
(flet ($x420 (= gtINDEX30 (select gtFIELD__bitsForTID0__gtAGG____anonstruct_D_Work_4 gtINDEX29)))
(flet ($x416 (= gtINDEX28 (select gtFIELD__bitsForTID0__gtAGG____anonstruct_D_Work_4 gtINDEX27)))
(flet ($x412 (= gtINDEX26 (select gtFIELD__bitsForTID0__gtAGG____anonstruct_D_Work_4 gtINDEX25)))
(flet ($x408 (= gtINDEX24 (select gtFIELD__bitsForTID0__gtAGG____anonstruct_D_Work_4 gtINDEX23)))
(flet ($x404 (= gtINDEX22 (select gtFIELD__bitsForTID0__gtAGG____anonstruct_D_Work_4 gtINDEX21)))
(flet ($x400 (= gtINDEX20 (select gtFIELD__bitsForTID0__gtAGG____anonstruct_D_Work_4 gtINDEX19)))
(flet ($x396 (= gtINDEX18 (select gtFIELD__bitsForTID0__gtAGG____anonstruct_D_Work_4 gtINDEX17)))
(flet ($x391 (= gtINDEX15 (select gtFIELD__bitsForTID0__gtAGG____anonstruct_D_Work_4 gtINDEX14)))
(flet ($x387 (= gtINDEX13 (select gtFIELD__bitsForTID0__gtAGG____anonstruct_D_Work_4 gtINDEX12)))
(flet ($x383 (= gtINDEX11 (select gtFIELD__bitsForTID0__gtAGG____anonstruct_D_Work_4 gtINDEX10)))
(flet ($x379 (= gtINDEX9 (select gtFIELD__bitsForTID0__gtAGG____anonstruct_D_Work_4 gtINDEX8)))
(flet ($x375 (= gtINDEX7 (select gtFIELD__bitsForTID0__gtAGG____anonstruct_D_Work_4 gtINDEX6)))
(flet ($x371 (= gtINDEX5 (select gtFIELD__bitsForTID0__gtAGG____anonstruct_D_Work_4 gtINDEX4)))
(flet ($x367 (= gtINDEX3 (select gtFIELD__bitsForTID0__gtAGG____anonstruct_D_Work_4 gtINDEX2)))
(flet ($x363 (= gtINDEX1 (select gtFIELD__bitsForTID0__gtAGG____anonstruct_D_Work_4 gtINDEX0)))
(let (?x347 (extract[0:0] bv1[32]))
(let (?x357 (store gtFIELD__is_Eng__gtAGG____anonstruct_bitsForTID0_5_1_ gtINDEX110 ?x347))
(flet ($x730 (iff constraint81 (= gtFIELD__is_Eng__gtAGG____anonstruct_bitsForTID0_5_2_ ?x357)))
(let (?x353 (select gtFIELD__is_Eng__gtAGG____anonstruct_bitsForTID0_5_1_ gtINDEX108))
(let (?x348 (store gtFIELD__is_Eng__gtAGG____anonstruct_bitsForTID0_5 gtINDEX106 ?x347))
(flet ($x724 (iff constraint78 (= gtFIELD__is_Eng__gtAGG____anonstruct_bitsForTID0_5_1_ ?x348)))
(let (?x343 (select gtFIELD__is_Eng__gtAGG____anonstruct_bitsForTID0_5 gtINDEX104))
(let (?x340 (store gtFIELD__sent__gtAGG____anonstruct_D_Work_4_1_ gtINDEX102 bv0[32]))
(flet ($x720 (iff constraint76 (= gtFIELD__sent__gtAGG____anonstruct_D_Work_4_2_ ?x340)))
(let (?x184 (bvmul bv4294967295[32] bv1[32]))
(flet ($x338 (= (select gtFIELD__sent__gtAGG____anonstruct_D_Work_4_1_ gtINDEX101) ?x184))
(flet ($x334 (= (select gtFIELD__sent__gtAGG____anonstruct_D_Work_4_1_ gtINDEX100) bv9[32]))
(flet ($x329 (= (select gtFIELD__sent__gtAGG____anonstruct_D_Work_4_1_ gtINDEX99) bv4[32]))
(let (?x325 (zero_extend[31] (select gtFIELD__is_Eng__gtAGG____anonstruct_bitsForTID0_5 gtINDEX98)))
(let (?x319 (select gtFIELD__is_active_Eng__gtAGG____anonstruct_bitsForTID0_5 gtINDEX96))
(let (?x316 (store gtFIELD__temporalCounter_i5__gtAGG____anonstruct_D_Work_4 gtINDEX94 bv0[32]))
(flet ($x708 (iff constraint70 (= gtFIELD__temporalCounter_i5__gtAGG____anonstruct_D_Work_4_1_ ?x316)))
(let (?x240 (extract[1:0] bv1[32]))
(let (?x313 (store gtFIELD__is_PURI__gtAGG____anonstruct_bitsForTID0_5 gtINDEX93 ?x240))
(flet ($x706 (iff constraint69 (= gtFIELD__is_PURI__gtAGG____anonstruct_bitsForTID0_5_1_ ?x313)))
(let (?x310 (store gtFIELD__URIex__gtAGG____anonstruct_bitsForTID0_5 gtINDEX91 (extract[0:0] bv0[32])))
(flet ($x704 (iff constraint68 (= gtFIELD__URIex__gtAGG____anonstruct_bitsForTID0_5_1_ ?x310)))
(flet ($x307 (= gtFIELD__sh_rst__gtAGG____anonstruct_D_Work_4_1_ (store gtFIELD__sh_rst__gtAGG____anonstruct_D_Work_4 gtINDEX89 bv1[32])))
(flet ($x304 (= gtFIELD__n_t_a__gtAGG____anonstruct_D_Work_4_1_ (store gtFIELD__n_t_a__gtAGG____anonstruct_D_Work_4 gtINDEX88 bv0[32])))
(let (?x299 (select gtFIELD__is_PURI__gtAGG____anonstruct_bitsForTID0_5 gtINDEX87))
(let (?x294 (select gtFIELD__is_PURI__gtAGG____anonstruct_bitsForTID0_5 gtINDEX85))
(let (?x289 (select gtFIELD__is_active_PURI__gtAGG____anonstruct_bitsForTID0_5 gtINDEX83))
(let (?x153 (extract[1:0] bv0[32]))
(let (?x286 (store gtFIELD__is_PVRP__gtAGG____anonstruct_bitsForTID0_5_1_ gtINDEX81 ?x153))
(flet ($x688 (iff constraint60 (= gtFIELD__is_PVRP__gtAGG____anonstruct_bitsForTID0_5_2_ ?x286)))
(let (?x281 (select gtFIELD__is_PVRP__gtAGG____anonstruct_bitsForTID0_5_1_ gtINDEX79))
(let (?x276 (select gtFIELD__is_PVRP__gtAGG____anonstruct_bitsForTID0_5_1_ gtINDEX77))
(let (?x271 (select gtFIELD__is_PVRP__gtAGG____anonstruct_bitsForTID0_5_1_ gtINDEX75))
(let (?x266 (select gtFIELD__is_active_PVRP__gtAGG____anonstruct_bitsForTID0_5 gtINDEX73))
(let (?x263 (store gtFIELD__temporalCounter_i3__gtAGG____anonstruct_D_Work_4 gtINDEX71 bv0[32]))
(flet ($x678 (iff constraint55 (= gtFIELD__temporalCounter_i3__gtAGG____anonstruct_D_Work_4_1_ ?x263)))
(let (?x260 (store gtFIELD__is_PPVARP__gtAGG____anonstruct_bitsForTID0_5 gtINDEX70 (extract[1:0] bv2[32])))
(flet ($x676 (iff constraint54 (= gtFIELD__is_PPVARP__gtAGG____anonstruct_bitsForTID0_5_1_ ?x260)))
(flet ($x257 (= gtFIELD__n_t_b__gtAGG____anonstruct_D_Work_4_1_ (store gtFIELD__n_t_b__gtAGG____anonstruct_D_Work_4 gtINDEX68 bv0[32])))
(let (?x252 (select gtFIELD__is_PPVARP__gtAGG____anonstruct_bitsForTID0_5 gtINDEX67))
(let (?x247 (select gtFIELD__is_active_PPVARP__gtAGG____anonstruct_bitsForTID0_5 gtINDEX65))
(let (?x244 (store gtFIELD__temporalCounter_i2__gtAGG____anonstruct_D_Work_4 gtINDEX63 bv0[32]))
(flet ($x664 (iff constraint48 (= gtFIELD__temporalCounter_i2__gtAGG____anonstruct_D_Work_4_1_ ?x244)))
(let (?x241 (store gtFIELD__is_PLRI__gtAGG____anonstruct_bitsForTID0_5 gtINDEX62 ?x240))
(flet ($x662 (iff constraint47 (= gtFIELD__is_PLRI__gtAGG____anonstruct_bitsForTID0_5_1_ ?x241)))
(flet ($x238 (= gtFIELD__n_t_n__gtAGG____anonstruct_D_Work_4_1_ (store gtFIELD__n_t_n__gtAGG____anonstruct_D_Work_4 gtINDEX60 bv0[32])))
(flet ($x232 (= (select gtFIELD__sent__gtAGG____anonstruct_D_Work_4_1_ gtINDEX59) bv0[32]))
(let (?x227 (select gtFIELD__is_PLRI__gtAGG____anonstruct_bitsForTID0_5 gtINDEX58))
(let (?x222 (select gtFIELD__is_active_PLRI__gtAGG____anonstruct_bitsForTID0_5 gtINDEX56))
(let (?x98 (extract[2:0] bv0[32]))
(let (?x219 (store gtFIELD__is_PAVI__gtAGG____anonstruct_bitsForTID0_5_1_ gtINDEX54 ?x98))
(flet ($x648 (iff constraint40 (= gtFIELD__is_PAVI__gtAGG____anonstruct_bitsForTID0_5_2_ ?x219)))
(let (?x214 (select gtFIELD__is_PAVI__gtAGG____anonstruct_bitsForTID0_5_1_ gtINDEX52))
(let (?x209 (select gtFIELD__is_PAVI__gtAGG____anonstruct_bitsForTID0_5_1_ gtINDEX50))
(let (?x204 (select gtFIELD__is_PAVI__gtAGG____anonstruct_bitsForTID0_5_1_ gtINDEX48))
(let (?x199 (select gtFIELD__is_PAVI__gtAGG____anonstruct_bitsForTID0_5_1_ gtINDEX46))
(let (?x194 (select gtFIELD__is_active_PAVI__gtAGG____anonstruct_bitsForTID0_5 gtINDEX44))
(flet ($x186 (= gtFIELD__sent__gtAGG____anonstruct_D_Work_4_1_ (store gtFIELD__sent__gtAGG____anonstruct_D_Work_4 gtINDEX42 ?x184)))
(flet ($x181 (= (select gtFIELD__sent__gtAGG____anonstruct_D_Work_4 gtINDEX41) bv4[32]))
(let (?x177 (zero_extend[31] (select gtFIELD__is_Eng__gtAGG____anonstruct_bitsForTID0_5 gtINDEX40)))
(let (?x171 (select gtFIELD__is_active_Eng__gtAGG____anonstruct_bitsForTID0_5 gtINDEX38))
(let (?x167 (select gtFIELD__is_PURI__gtAGG____anonstruct_bitsForTID0_5 gtINDEX36))
(let (?x162 (select gtFIELD__is_PURI__gtAGG____anonstruct_bitsForTID0_5 gtINDEX34))
(let (?x157 (select gtFIELD__is_active_PURI__gtAGG____anonstruct_bitsForTID0_5 gtINDEX32))
(let (?x154 (store gtFIELD__is_PVRP__gtAGG____anonstruct_bitsForTID0_5 gtINDEX30 ?x153))
(flet ($x612 (iff constraint22 (= gtFIELD__is_PVRP__gtAGG____anonstruct_bitsForTID0_5_1_ ?x154)))
(let (?x148 (select gtFIELD__is_PVRP__gtAGG____anonstruct_bitsForTID0_5 gtINDEX28))
(let (?x143 (select gtFIELD__is_PVRP__gtAGG____anonstruct_bitsForTID0_5 gtINDEX26))
(let (?x138 (select gtFIELD__is_PVRP__gtAGG____anonstruct_bitsForTID0_5 gtINDEX24))
(let (?x133 (select gtFIELD__is_active_PVRP__gtAGG____anonstruct_bitsForTID0_5 gtINDEX22))
(let (?x127 (select gtFIELD__is_PPVARP__gtAGG____anonstruct_bitsForTID0_5 gtINDEX20))
(let (?x122 (select gtFIELD__is_active_PPVARP__gtAGG____anonstruct_bitsForTID0_5 gtINDEX18))
(flet ($x112 (= (select gtFIELD__sent__gtAGG____anonstruct_D_Work_4 gtINDEX16) bv0[32]))
(let (?x107 (select gtFIELD__is_PLRI__gtAGG____anonstruct_bitsForTID0_5 gtINDEX15))
(let (?x102 (select gtFIELD__is_active_PLRI__gtAGG____anonstruct_bitsForTID0_5 gtINDEX13))
(let (?x99 (store gtFIELD__is_PAVI__gtAGG____anonstruct_bitsForTID0_5 gtINDEX11 ?x98))
(flet ($x580 (iff constraint6 (= gtFIELD__is_PAVI__gtAGG____anonstruct_bitsForTID0_5_1_ ?x99)))
(let (?x93 (zero_extend[29] (select gtFIELD__is_PAVI__gtAGG____anonstruct_bitsForTID0_5 gtINDEX9)))
(let (?x87 (zero_extend[29] (select gtFIELD__is_PAVI__gtAGG____anonstruct_bitsForTID0_5 gtINDEX7)))
(let (?x81 (zero_extend[29] (select gtFIELD__is_PAVI__gtAGG____anonstruct_bitsForTID0_5 gtINDEX5)))
(let (?x75 (zero_extend[29] (select gtFIELD__is_PAVI__gtAGG____anonstruct_bitsForTID0_5 gtINDEX3)))
(let (?x68 (select gtFIELD__is_active_PAVI__gtAGG____anonstruct_bitsForTID0_5 gtINDEX1))
(flet ($x953 (and (iff constraint0 (not (= sfEvent_ bv8[32]))) (iff constraint1 (not (= (zero_extend[31] ?x68) bv0[32]))) (iff constraint2 (not (= ?x75 bv1[32]))) (iff constraint3 (not (= ?x81 bv2[32]))) (iff constraint4 (not (= ?x87 bv3[32]))) (iff constraint5 (not (= ?x93 bv4[32]))) $x580 (iff constraint7 (not (= (zero_extend[31] ?x102) bv0[32]))) (iff constraint8 (= (zero_extend[30] ?x107) bv1[32])) (iff constraint9 (not $x112)) (iff constraint10 (not (= sfEvent_ bv4[32]))) (iff constraint11 (not (= sfEvent_ bv5[32]))) (iff constraint12 (not (= sfEvent_ bv3[32]))) (iff constraint13 (not (= (zero_extend[31] ?x122) bv0[32]))) (iff constraint14 (= (zero_extend[30] ?x127) bv1[32])) (iff constraint15 (not (= sfEvent_ bv4[32]))) (iff constraint16 (not (= sfEvent_ bv5[32]))) (iff constraint17 (not (= sfEvent_ bv1[32]))) (iff constraint18 (not (= (zero_extend[31] ?x133) bv0[32]))) (iff constraint19 (not (= (zero_extend[30] ?x138) bv1[32]))) (iff constraint20 (not (= (zero_extend[30] ?x143) bv2[32]))) (iff constraint21 (not (= (zero_extend[30] ?x148) bv3[32]))) $x612 (iff constraint23 (not (= (zero_extend[31] ?x157) bv0[32]))) (iff constraint24 (not (= (zero_extend[30] ?x162) bv1[32]))) (iff constraint25 (= (zero_extend[30] ?x167) bv2[32])) (iff constraint26 (not (= sfEvent_ bv4[32]))) (iff constraint27 (not (= sfEvent_ bv5[32]))) (iff constraint28 (not (= (zero_extend[31] ?x171) bv0[32]))) (iff constraint29 (= ?x177 bv1[32])) (iff constraint30 $x181) (iff constraint31 $x186) (iff constraint32 (= sf_previousEvent_1_ sfEvent_)) (iff constraint33 (= sfEvent__1_ bv5[32])) (iff constraint34 (not (= sfEvent__1_ bv8[32]))) (iff constraint35 (not (= (zero_extend[31] ?x194) bv0[32]))) (iff constraint36 (not (= (zero_extend[29] ?x199) bv1[32]))) (iff constraint37 (not (= (zero_extend[29] ?x204) bv2[32]))) (iff constraint38 (not (= (zero_extend[29] ?x209) bv3[32]))) (iff constraint39 (not (= (zero_extend[29] ?x214) bv4[32]))) $x648 (iff constraint41 (not (= (zero_extend[31] ?x222) bv0[32]))) (iff constraint42 (= (zero_extend[30] ?x227) bv1[32])) (iff constraint43 (not $x232)) (iff constraint44 (not (= sfEvent__1_ bv4[32]))) (iff constraint45 (= sfEvent__1_ bv5[32])) (iff constraint46 $x238) $x662 $x664 (iff constraint49 (not (= (zero_extend[31] ?x247) bv0[32]))) (iff constraint50 (= (zero_extend[30] ?x252) bv1[32])) (iff constraint51 (not (= sfEvent__1_ bv4[32]))) (iff constraint52 (= sfEvent__1_ bv5[32])) (iff constraint53 $x257) $x676 $x678 (iff constraint56 (not (= (zero_extend[31] ?x266) bv0[32]))) (iff constraint57 (not (= (zero_extend[30] ?x271) bv1[32]))) (iff constraint58 (not (= (zero_extend[30] ?x276) bv2[32]))) (iff constraint59 (not (= (zero_extend[30] ?x281) bv3[32]))) $x688 (iff constraint61 (not (= (zero_extend[31] ?x289) bv0[32]))) (iff constraint62 (not (= (zero_extend[30] ?x294) bv1[32]))) (iff constraint63 (= (zero_extend[30] ?x299) bv2[32])) (iff constraint64 (not (= sfEvent__1_ bv4[32]))) (iff constraint65 (= sfEvent__1_ bv5[32])) (iff constraint66 $x304) (iff constraint67 $x307) $x704 $x706 $x708 (iff constraint71 (not (= (zero_extend[31] ?x319) bv0[32]))) (iff constraint72 (= ?x325 bv1[32])) (iff constraint73 (not $x329)) (iff constraint74 (not $x334)) (iff constraint75 $x338) $x720 (iff constraint77 (= (zero_extend[31] ?x343) bv1[32])) $x724 (iff constraint79 (= sfEvent__2_ sf_previousEvent_1_)) (iff constraint80 (= (zero_extend[31] ?x353) bv1[32])) $x730 (iff constraint82 (= gtINDEX0 gtAGG__rtDWork)) (iff constraint83 $x363) (iff constraint84 (= gtINDEX2 gtAGG__rtDWork)) (iff constraint85 $x367) (iff constraint86 (= gtINDEX4 gtAGG__rtDWork)) (iff constraint87 $x371) (iff constraint88 (= gtINDEX6 gtAGG__rtDWork)) (iff constraint89 $x375) (iff constraint90 (= gtINDEX8 gtAGG__rtDWork)) (iff constraint91 $x379) (iff constraint92 (= gtINDEX10 gtAGG__rtDWork)) (iff constraint93 $x383) (iff constraint94 (= gtINDEX12 gtAGG__rtDWork)) (iff constraint95 $x387) (iff constraint96 (= gtINDEX14 gtAGG__rtDWork)) (iff constraint97 $x391) (iff constraint98 (= gtINDEX16 gtAGG__rtDWork)) (iff constraint99 (= gtINDEX17 gtAGG__rtDWork)) (iff constraint100 $x396) (iff constraint101 (= gtINDEX19 gtAGG__rtDWork)) (iff constraint102 $x400) (iff constraint103 (= gtINDEX21 gtAGG__rtDWork)) (iff constraint104 $x404) (iff constraint105 (= gtINDEX23 gtAGG__rtDWork)) (iff constraint106 $x408) (iff constraint107 (= gtINDEX25 gtAGG__rtDWork)) (iff constraint108 $x412) (iff constraint109 (= gtINDEX27 gtAGG__rtDWork)) (iff constraint110 $x416) (iff constraint111 (= gtINDEX29 gtAGG__rtDWork)) (iff constraint112 $x420) (iff constraint113 (= gtINDEX31 gtAGG__rtDWork)) (iff constraint114 $x424) (iff constraint115 (= gtINDEX33 gtAGG__rtDWork)) (iff constraint116 $x428) (iff constraint117 (= gtINDEX35 gtAGG__rtDWork)) (iff constraint118 $x432) (iff constraint119 (= gtINDEX37 gtAGG__rtDWork)) (iff constraint120 $x436) (iff constraint121 (= gtINDEX39 gtAGG__rtDWork)) (iff constraint122 $x440) (iff constraint123 (= gtINDEX41 gtAGG__rtDWork)) (iff constraint124 (= gtINDEX42 gtAGG__rtDWork)) (iff constraint125 (= gtINDEX43 gtAGG__rtDWork)) (iff constraint126 $x446) (iff constraint127 (= gtINDEX45 gtAGG__rtDWork)) (iff constraint128 $x450) (iff constraint129 (= gtINDEX47 gtAGG__rtDWork)) (iff constraint130 $x454) (iff constraint131 (= gtINDEX49 gtAGG__rtDWork)) (iff constraint132 $x458) (iff constraint133 (= gtINDEX51 gtAGG__rtDWork)) (iff constraint134 $x462) (iff constraint135 (= gtINDEX53 gtAGG__rtDWork)) (iff constraint136 $x466) (iff constraint137 (= gtINDEX55 gtAGG__rtDWork)) (iff constraint138 $x470) (iff constraint139 (= gtINDEX57 gtAGG__rtDWork)) (iff constraint140 $x474) (iff constraint141 (= gtINDEX59 gtAGG__rtDWork)) (iff constraint142 (= gtINDEX60 gtAGG__rtDWork)) (iff constraint143 (= gtINDEX61 gtAGG__rtDWork)) (iff constraint144 $x480) (iff constraint145 (= gtINDEX63 gtAGG__rtDWork)) (iff constraint146 (= gtINDEX64 gtAGG__rtDWork)) (iff constraint147 $x485) (iff constraint148 (= gtINDEX66 gtAGG__rtDWork)) (iff constraint149 $x489) (iff constraint150 (= gtINDEX68 gtAGG__rtDWork)) (iff constraint151 (= gtINDEX69 gtAGG__rtDWork)) (iff constraint152 $x494) (iff constraint153 (= gtINDEX71 gtAGG__rtDWork)) (iff constraint154 (= gtINDEX72 gtAGG__rtDWork)) (iff constraint155 $x499) (iff constraint156 (= gtINDEX74 gtAGG__rtDWork)) (iff constraint157 $x503) (iff constraint158 (= gtINDEX76 gtAGG__rtDWork)) (iff constraint159 $x507) (iff constraint160 (= gtINDEX78 gtAGG__rtDWork)) (iff constraint161 $x511) (iff constraint162 (= gtINDEX80 gtAGG__rtDWork)) (iff constraint163 $x515) (iff constraint164 (= gtINDEX82 gtAGG__rtDWork)) (iff constraint165 $x519) (iff constraint166 (= gtINDEX84 gtAGG__rtDWork)) (iff constraint167 $x523) (iff constraint168 (= gtINDEX86 gtAGG__rtDWork)) (iff constraint169 $x527) (iff constraint170 (= gtINDEX88 gtAGG__rtDWork)) (iff constraint171 (= gtINDEX89 gtAGG__rtDWork)) (iff constraint172 (= gtINDEX90 gtAGG__rtDWork)) (iff constraint173 $x533) (iff constraint174 (= gtINDEX92 gtAGG__rtDWork)) (iff constraint175 $x537) (iff constraint176 (= gtINDEX94 gtAGG__rtDWork)) (iff constraint177 (= gtINDEX95 gtAGG__rtDWork)) (iff constraint178 $x542) (iff constraint179 (= gtINDEX97 gtAGG__rtDWork)) (iff constraint180 $x546) (iff constraint181 (= gtINDEX99 gtAGG__rtDWork)) (iff constraint182 (= gtINDEX100 gtAGG__rtDWork)) (iff constraint183 (= gtINDEX101 gtAGG__rtDWork)) (iff constraint184 (= gtINDEX102 gtAGG__rtDWork)) (iff constraint185 (= gtINDEX103 gtAGG__rtDWork)) (iff constraint186 (= gtINDEX104 ?x553)) (iff constraint187 (= gtINDEX105 gtAGG__rtDWork)) (iff constraint188 (= gtINDEX106 ?x557)) (iff constraint189 (= gtINDEX107 gtAGG__rtDWork)) (iff constraint190 (= gtINDEX108 ?x561)) (iff constraint191 (= gtINDEX109 gtAGG__rtDWork)) (iff constraint192 (= gtINDEX110 ?x565))))
(and $x953 $x954)))))))))))))))))))))))))))))))))))))))))))))))))))))))))))))))))))))))))))))))))))))))))))))))))))))))))))))))))))))))))))))))))))))
)
